
Gurobi 9.5.1 (linux64) logging started Tue 16 Aug 2022 04:17:30 PM MST

Set parameter LogFile to value "/home/local/ASUAD/kmajd1/NNRepLayer_v2/demos/walking_example/global_constraint_upper_10/repair_net/logs/opt_log_multi_23.log"
Gurobi Optimizer version 9.5.1 build v9.5.1rc2 (linux64)
Thread count: 48 physical cores, 96 logical processors, using up to 45 threads
Optimize a model with 16863 rows, 10742 columns and 136895 nonzeros
Model fingerprint: 0x30f43f0f
Model has 149 quadratic objective terms
Variable types: 5974 continuous, 4768 integer (4768 binary)
Coefficient statistics:
  Matrix range     [3e-04, 2e+02]
  Objective range  [4e-03, 1e+00]
  QObjective range [1e-02, 1e-02]
  Bounds range     [1e+00, 1e+03]
  RHS range        [6e-04, 2e+02]

Concurrent MIP optimizer: 3 concurrent instances (15 threads per instance)

Presolve removed 426 rows and 64 columns
Presolve time: 0.21s
Presolved: 16437 rows, 10678 columns, 136341 nonzeros
Presolved model has 149 quadratic objective terms
Variable types: 5910 continuous, 4768 integer (4768 binary)
Root relaxation presolve removed 4768 rows and 4768 columns
Root relaxation presolved: 11669 rows, 5910 columns, 122037 nonzeros
Root relaxation presolved model has 149 quadratic objective terms


Root relaxation: objective 3.385305e+01, 7345 iterations, 0.25 seconds (0.35 work units)

    Nodes    |    Current Node    |     Objective Bounds      |     Work
 Expl Unexpl |  Obj  Depth IntInf | Incumbent    BestBd   Gap | It/Node Time

     0     0      -    -    -      196.37677   33.85305  82.8%     -    1s
     0     0      -    -    -      192.73637   33.85305  82.4%     -    2s
     0     2      -    -    -      192.10417   33.85305  82.4%     -    6s
   278   307      -    -    -       39.11891   33.85305  13.5%     -   12s
   721   771      -    -    -       39.11891   33.85305  13.5%     -   15s
  1535  1551      -    -    -       38.67126   33.85305  12.5%     -   26s
  1550  1566      -    -    -       38.67126   33.85305  12.5%     -   35s
  2691  2707      -    -    -       38.58138   33.85305  12.3%     -   43s
  3400  3487      -    -    -       38.58138   33.85305  12.3%     -   45s
  5458  5748      -    -    -       38.42012   33.85305  11.9%     -   50s
  8752  9193      -    -    -       38.42012   33.85305  11.9%     -   55s
 10115 10116      -    -    -       38.39483   33.85305  11.8%     -   67s
 10117  9130      -    -    -       38.39483   33.85305  11.8%     -   72s
 10119  8242      -    -    -       38.39483   33.85305  11.8%     -   86s
 10149  7866      -    -    -       38.39483   33.85305  11.8%     -   95s
 10214  7145      -    -    -       38.39483   33.85305  11.8%     -  121s
 10229  6147      -    -    -       38.36786   33.85305  11.8%     -  146s

Resetting heuristic parameters to focus on improving solution
(using Heuristics=0.5 and RINS=10)...

 10244  5581      -    -    -       38.35101   33.85305  11.7%     -  147s
 10274  4572      -    -    -       38.09746   33.85305  11.1%     -  185s
 10289  4359      -    -    -       38.05256   33.85305  11.0%     -  216s

Instance 0 was solved

Explored 10304 nodes (349075 simplex iterations) in 216.15 seconds (440.98 work units)
Thread count was 15 (of 96 available processors)

Solution count 10: 38.0271 38.0526 38.0975 ... 38.3413 

Optimal solution found (tolerance 1.10e-01)
Best objective 3.802705323733e+01, best bound 3.385304831132e+01, gap 10.9764%
